NAME: bip_30_1
TYPE: TSP
COMMENT: bip_30_1
DIMENSION: 30
EDGE_WEIGHT_TYPE: EUC_2D
NODE_COORD_SECTION
1 40 37
2 38 59
3 82 39
4 81 69
5 61 38
6 73 82
7 52 32
8 56 25
9 55 93
10 95 7
11 59 84
12 75 91
13 21 20
14 97 97
15 25 47
16 412 408
17 415 493
18 404 455
19 436 471
20 463 455
21 474 444
22 495 485
23 456 495
24 462 442
25 495 427
26 499 452
27 448 438
28 402 474
29 415 462
30 453 409
